
Gurobi 9.5.1 (win64) logging started Wed Apr 20 01:09:10 2022

Set parameter LogFile to value "./Log/Direct_MIP_Return_solver_960_order_96_batch.log"
Gurobi Optimizer version 9.5.1 build v9.5.1rc2 (win64)
Thread count: 6 physical cores, 12 logical processors, using up to 12 threads
Optimize a model with 440352 rows, 273408 columns and 1595136 nonzeros
Model fingerprint: 0x84b08c3d
Variable types: 4608 continuous, 268800 integer (268800 binary)
Coefficient statistics:
  Matrix range     [1e+00, 3e+01]
  Objective range  [4e-01, 1e+00]
  Bounds range     [1e+00, 4e+01]
  RHS range        [1e+00, 1e+01]
Found heuristic solution: objective 19608.000000
Presolve removed 107232 rows and 96480 columns
Presolve time: 4.57s
Presolved: 333120 rows, 176928 columns, 1459200 nonzeros
Variable types: 0 continuous, 176928 integer (172512 binary)

Deterministic concurrent LP optimizer: primal and dual simplex (primal and dual model)
Showing first log only...

Root relaxation presolve removed 75936 rows and 75936 columns
Root relaxation presolved: 257184 rows, 100992 columns, 1182336 nonzeros


Root simplex log...

Iteration    Objective       Primal Inf.    Dual Inf.      Time
       0    3.9588000e+03   0.000000e+00   0.000000e+00      6s

Use crossover to convert LP symmetric solution to basic solution...

Root crossover log...

       3 DPushes remaining with DInf 0.0000000e+00                 7s
       0 DPushes remaining with DInf 0.0000000e+00                 7s

   90915 PPushes remaining with PInf 0.0000000e+00                 7s
   80355 PPushes remaining with PInf 0.0000000e+00                13s
   69662 PPushes remaining with PInf 0.0000000e+00                19s
   63867 PPushes remaining with PInf 0.0000000e+00                22s
   55445 PPushes remaining with PInf 0.0000000e+00                27s
   43631 PPushes remaining with PInf 0.0000000e+00                30s
   24915 PPushes remaining with PInf 0.0000000e+00                35s
   14638 PPushes remaining with PInf 0.0000000e+00                41s
    2929 PPushes remaining with PInf 0.0000000e+00                45s
    1013 PPushes remaining with PInf 0.0000000e+00                51s
     193 PPushes remaining with PInf 0.0000000e+00                55s
       0 PPushes remaining with PInf 0.0000000e+00                57s

  Push phase complete: Pinf 0.0000000e+00, Dinf 4.7405634e-10     57s


Root simplex log...

Iteration    Objective       Primal Inf.    Dual Inf.      Time
   90920    3.9588000e+03   0.000000e+00   0.000000e+00     57s
   90920    3.9588000e+03   0.000000e+00   0.000000e+00     57s
Concurrent spin time: 0.35s

Solved with primal simplex (primal model)

Root relaxation: objective 3.958800e+03, 90920 iterations, 52.31 seconds (43.10 work units)

    Nodes    |    Current Node    |     Objective Bounds      |     Work
 Expl Unexpl |  Obj  Depth IntInf | Incumbent    BestBd   Gap | It/Node Time

     0     0 3958.80000    0 146918 19608.0000 3958.80000  79.8%     -  122s
H    0     0                    16815.600000 3958.80000  76.5%     -  123s
     0     0          -    0      16815.6000 3958.80000  76.5%     - 1000s

Cutting planes:
  Cover: 2547
  MIR: 7
  Zero half: 196
  RLT: 204
  Relax-and-lift: 718

Explored 1 nodes (146323 simplex iterations) in 1000.04 seconds (2929.79 work units)
Thread count was 12 (of 12 available processors)

Solution count 2: 16815.6 19608 

Time limit reached
Best objective 1.681560000000e+04, best bound 3.958800000000e+03, gap 76.4576%

Gurobi 9.5.1 (win64) logging started Wed Apr 20 02:47:35 2022

Set parameter LogFile to value "./Log/Direct_MIP_Return_solver_960_order_96_batch.log"
Gurobi Optimizer version 9.5.1 build v9.5.1rc2 (win64)
Thread count: 6 physical cores, 12 logical processors, using up to 12 threads
Optimize a model with 440352 rows, 273408 columns and 1591680 nonzeros
Model fingerprint: 0x0f0bd9fc
Variable types: 4608 continuous, 268800 integer (268800 binary)
Coefficient statistics:
  Matrix range     [1e+00, 3e+01]
  Objective range  [4e-01, 1e+00]
  Bounds range     [1e+00, 4e+01]
  RHS range        [1e+00, 1e+01]
Found heuristic solution: objective 19715.600000
Presolve removed 105888 rows and 93600 columns
Presolve time: 4.58s
Presolved: 334464 rows, 179808 columns, 1459200 nonzeros
Variable types: 0 continuous, 179808 integer (175392 binary)

Deterministic concurrent LP optimizer: primal and dual simplex (primal and dual model)
Showing first log only...

Root relaxation presolve removed 79008 rows and 78912 columns
Root relaxation presolved: 255456 rows, 100896 columns, 1174272 nonzeros


Root simplex log...

Iteration    Objective       Primal Inf.    Dual Inf.      Time
       0    3.9584000e+03   0.000000e+00   0.000000e+00      6s

Use crossover to convert LP symmetric solution to basic solution...

Root crossover log...

       2 DPushes remaining with DInf 0.0000000e+00                 7s
       0 DPushes remaining with DInf 0.0000000e+00                 7s

   91010 PPushes remaining with PInf 0.0000000e+00                 7s
   79865 PPushes remaining with PInf 0.0000000e+00                14s
   69733 PPushes remaining with PInf 0.0000000e+00                19s
   62131 PPushes remaining with PInf 0.0000000e+00                25s
   55265 PPushes remaining with PInf 0.0000000e+00                31s
   47578 PPushes remaining with PInf 0.0000000e+00                35s
   32722 PPushes remaining with PInf 0.0000000e+00                44s
   26516 PPushes remaining with PInf 0.0000000e+00                48s
   17522 PPushes remaining with PInf 0.0000000e+00                52s
    5959 PPushes remaining with PInf 0.0000000e+00                55s
    1093 PPushes remaining with PInf 0.0000000e+00                60s
       5 PPushes remaining with PInf 0.0000000e+00                66s
       0 PPushes remaining with PInf 0.0000000e+00                67s

  Push phase complete: Pinf 0.0000000e+00, Dinf 4.0446048e-10     67s


Root simplex log...

Iteration    Objective       Primal Inf.    Dual Inf.      Time
   91014    3.9584000e+03   0.000000e+00   0.000000e+00     67s
   91014    3.9584000e+03   0.000000e+00   0.000000e+00     67s
Concurrent spin time: 0.78s

Solved with primal simplex (primal model)

Root relaxation: objective 3.958400e+03, 91014 iterations, 62.03 seconds (40.24 work units)

    Nodes    |    Current Node    |     Objective Bounds      |     Work
 Expl Unexpl |  Obj  Depth IntInf | Incumbent    BestBd   Gap | It/Node Time

     0     0 3958.40000    0 150257 19715.6000 3958.40000  79.9%     -  130s
H    0     0                    17256.000000 3958.40000  77.1%     -  131s
     0     0          -    0      17256.0000 3958.40000  77.1%     - 1000s

Cutting planes:
  Cover: 3229
  MIR: 5
  Zero half: 149
  RLT: 504
  Relax-and-lift: 1636

Explored 1 nodes (146466 simplex iterations) in 1000.05 seconds (3160.80 work units)
Thread count was 12 (of 12 available processors)

Solution count 2: 17256 19715.6 

Time limit reached
Best objective 1.725600000000e+04, best bound 3.958400000000e+03, gap 77.0607%

Gurobi 9.5.1 (win64) logging started Sun Apr 24 20:24:31 2022

Set parameter LogFile to value "./Log/Direct_MIP_Return_solver_960_order_96_batch.log"
Gurobi Optimizer version 9.5.1 build v9.5.1rc2 (win64)
Thread count: 6 physical cores, 12 logical processors, using up to 12 threads
Optimize a model with 440352 rows, 273408 columns and 1594944 nonzeros
Model fingerprint: 0x16830967
Variable types: 4608 continuous, 268800 integer (268800 binary)
Coefficient statistics:
  Matrix range     [1e+00, 3e+01]
  Objective range  [4e-01, 1e+00]
  Bounds range     [1e+00, 4e+01]
  RHS range        [1e+00, 1e+01]
Found heuristic solution: objective 19551.200000
Presolve removed 107904 rows and 96960 columns
Presolve time: 4.61s
Presolved: 332448 rows, 176448 columns, 1457280 nonzeros
Variable types: 0 continuous, 176448 integer (172032 binary)

Deterministic concurrent LP optimizer: primal and dual simplex (primal and dual model)
Showing first log only...

Root relaxation presolve removed 75648 rows and 75552 columns
Root relaxation presolved: 256800 rows, 100896 columns, 1180032 nonzeros


Root simplex log...

Iteration    Objective       Primal Inf.    Dual Inf.      Time
       0    3.9572000e+03   0.000000e+00   0.000000e+00      6s

Use crossover to convert LP symmetric solution to basic solution...

Root crossover log...

       1 DPushes remaining with DInf 0.0000000e+00                 7s

   91105 PPushes remaining with PInf 0.0000000e+00                 7s
   78770 PPushes remaining with PInf 0.0000000e+00                10s
   65031 PPushes remaining with PInf 0.0000000e+00                18s
   58249 PPushes remaining with PInf 0.0000000e+00                25s
   51382 PPushes remaining with PInf 0.0000000e+00                28s
   44872 PPushes remaining with PInf 0.0000000e+00                34s
   38673 PPushes remaining with PInf 0.0000000e+00                40s
   32021 PPushes remaining with PInf 0.0000000e+00                45s
   25775 PPushes remaining with PInf 0.0000000e+00                49s
   22723 PPushes remaining with PInf 0.0000000e+00                50s
    6600 PPushes remaining with PInf 0.0000000e+00                55s
     850 PPushes remaining with PInf 0.0000000e+00                61s
      34 PPushes remaining with PInf 0.0000000e+00                67s
       0 PPushes remaining with PInf 2.2460817e-06                68s

  Push phase complete: Pinf 2.2460817e-06, Dinf 3.7456404e-10     68s


Root simplex log...

Iteration    Objective       Primal Inf.    Dual Inf.      Time
   91108    3.9572000e+03   2.246082e-06   0.000000e+00     68s
   91238    3.9572000e+03   5.789562e-06   0.000000e+00     71s
   91548    3.9572000e+03   7.914019e-06   0.000000e+00     76s
   91828    3.9572000e+03   1.645776e-03   0.000000e+00     81s
   92118    3.9572000e+03   1.293361e-04   0.000000e+00     86s
   92418    3.9572000e+03   2.243431e-04   0.000000e+00     91s
   92778    3.9572000e+03   1.467237e-04   0.000000e+00     97s
   92988    3.9572000e+03   3.219845e-04   0.000000e+00    101s
   93107    3.9572000e+03   0.000000e+00   0.000000e+00    104s
   93107    3.9572000e+03   0.000000e+00   0.000000e+00    104s
Concurrent spin time: 1.17s

Solved with primal simplex (primal model)

Root relaxation: objective 3.957200e+03, 93107 iterations, 100.39 seconds (108.93 work units)

    Nodes    |    Current Node    |     Objective Bounds      |     Work
 Expl Unexpl |  Obj  Depth IntInf | Incumbent    BestBd   Gap | It/Node Time

     0     0 3957.20000    0 147956 19551.2000 3957.20000  79.8%     -  263s
H    0     0                    17000.400000 3957.20000  76.7%     -  264s
     0     0          -    0      17000.4000 3957.20000  76.7%     - 1000s

Cutting planes:
  Cover: 5254
  MIR: 13
  Zero half: 24
  RLT: 1621
  Relax-and-lift: 3661
  PSD: 3

Explored 1 nodes (144381 simplex iterations) in 1000.05 seconds (2823.64 work units)
Thread count was 12 (of 12 available processors)

Solution count 2: 17000.4 19551.2 

Time limit reached
Best objective 1.700040000000e+04, best bound 3.957200000000e+03, gap 76.7229%

Gurobi 9.5.1 (win64) logging started Sun Apr 24 21:18:17 2022

Set parameter LogFile to value "./Log/Direct_MIP_Return_solver_960_order_96_batch.log"
Gurobi Optimizer version 9.5.1 build v9.5.1rc2 (win64)
Thread count: 6 physical cores, 12 logical processors, using up to 12 threads
Optimize a model with 440352 rows, 273408 columns and 1593024 nonzeros
Model fingerprint: 0xc903bde3
Variable types: 4608 continuous, 268800 integer (268800 binary)
Coefficient statistics:
  Matrix range     [1e+00, 4e+01]
  Objective range  [4e-01, 1e+00]
  Bounds range     [1e+00, 4e+01]
  RHS range        [1e+00, 1e+01]
Found heuristic solution: objective 19447.200000
Presolve removed 109632 rows and 96000 columns
Presolve time: 4.54s
Presolved: 330720 rows, 177408 columns, 1444992 nonzeros
Variable types: 0 continuous, 177408 integer (172992 binary)

Deterministic concurrent LP optimizer: primal and dual simplex (primal and dual model)
Showing first log only...

Root relaxation presolve removed 76416 rows and 76416 columns
Root relaxation presolved: 254304 rows, 100992 columns, 1170816 nonzeros


Root simplex log...

Iteration    Objective       Primal Inf.    Dual Inf.      Time
       0    3.9752000e+03   0.000000e+00   0.000000e+00      6s

Use crossover to convert LP symmetric solution to basic solution...

Root crossover log...

       2 DPushes remaining with DInf 0.0000000e+00                 7s
       0 DPushes remaining with DInf 0.0000000e+00                 7s

   91010 PPushes remaining with PInf 0.0000000e+00                 7s
   80853 PPushes remaining with PInf 0.0000000e+00                12s
   70521 PPushes remaining with PInf 0.0000000e+00                18s
   62459 PPushes remaining with PInf 0.0000000e+00                23s
   55825 PPushes remaining with PInf 0.0000000e+00                28s
   48018 PPushes remaining with PInf 0.0000000e+00                33s
   41354 PPushes remaining with PInf 0.0000000e+00                38s
   34988 PPushes remaining with PInf 0.0000000e+00                43s
   28187 PPushes remaining with PInf 0.0000000e+00                47s
   15504 PPushes remaining with PInf 0.0000000e+00                50s
    2390 PPushes remaining with PInf 0.0000000e+00                55s
      28 PPushes remaining with PInf 0.0000000e+00                62s
       0 PPushes remaining with PInf 0.0000000e+00                62s

  Push phase complete: Pinf 0.0000000e+00, Dinf 2.8197288e-10     62s


Root simplex log...

Iteration    Objective       Primal Inf.    Dual Inf.      Time
   91014    3.9752000e+03   0.000000e+00   0.000000e+00     62s
   91014    3.9752000e+03   0.000000e+00   0.000000e+00     63s
Concurrent spin time: 0.13s

Solved with primal simplex (primal model)

Root relaxation: objective 3.975200e+03, 91014 iterations, 57.83 seconds (33.92 work units)

    Nodes    |    Current Node    |     Objective Bounds      |     Work
 Expl Unexpl |  Obj  Depth IntInf | Incumbent    BestBd   Gap | It/Node Time

     0     0 3975.20000    0 147376 19447.2000 3975.20000  79.6%     -  116s
H    0     0                    17094.000000 3975.20000  76.7%     -  116s
     0     0          -    0      17094.0000 3975.20000  76.7%     - 1000s

Cutting planes:
  Cover: 1639
  Zero half: 198
  RLT: 64
  Relax-and-lift: 3

Explored 1 nodes (146934 simplex iterations) in 1000.05 seconds (2943.10 work units)
Thread count was 12 (of 12 available processors)

Solution count 2: 17094 19447.2 

Time limit reached
Best objective 1.709400000000e+04, best bound 3.975200000000e+03, gap 76.7451%

Gurobi 9.5.1 (win64) logging started Tue May 24 08:53:50 2022

Set parameter LogFile to value "./Log/Direct_MIP_Return_solver_960_order_96_batch.log"
Gurobi Optimizer version 9.5.1 build v9.5.1rc2 (win64)
Thread count: 6 physical cores, 12 logical processors, using up to 12 threads
Optimize a model with 440352 rows, 273408 columns and 1593792 nonzeros
Model fingerprint: 0x33ca0ecc
Variable types: 4608 continuous, 268800 integer (268800 binary)
Coefficient statistics:
  Matrix range     [1e+00, 3e+01]
  Objective range  [4e-01, 1e+00]
  Bounds range     [1e+00, 4e+01]
  RHS range        [1e+00, 1e+01]
Found heuristic solution: objective 18861.200000
Presolve removed 108192 rows and 96480 columns
Presolve time: 4.58s
Presolved: 332160 rows, 176928 columns, 1454784 nonzeros
Variable types: 0 continuous, 176928 integer (172512 binary)

Deterministic concurrent LP optimizer: primal and dual simplex (primal and dual model)
Showing first log only...

Root relaxation presolve removed 76128 rows and 76032 columns
Root relaxation presolved: 256032 rows, 100896 columns, 1176576 nonzeros


Root simplex log...

Iteration    Objective       Primal Inf.    Dual Inf.      Time
       0    3.9564000e+03   0.000000e+00   0.000000e+00      7s

Use crossover to convert LP symmetric solution to basic solution...

Root crossover log...

       3 DPushes remaining with DInf 0.0000000e+00                 7s
       0 DPushes remaining with DInf 0.0000000e+00                 7s

   90915 PPushes remaining with PInf 0.0000000e+00                 7s
   81359 PPushes remaining with PInf 0.0000000e+00                12s
   70619 PPushes remaining with PInf 0.0000000e+00                19s
   63142 PPushes remaining with PInf 0.0000000e+00                22s
   58075 PPushes remaining with PInf 0.0000000e+00                26s
   43006 PPushes remaining with PInf 0.0000000e+00                35s
   36632 PPushes remaining with PInf 0.0000000e+00                40s
   24900 PPushes remaining with PInf 0.0000000e+00                49s
   20587 PPushes remaining with PInf 0.0000000e+00                51s
    5881 PPushes remaining with PInf 0.0000000e+00                55s
     659 PPushes remaining with PInf 0.0000000e+00                60s
       0 PPushes remaining with PInf 0.0000000e+00                63s

  Push phase complete: Pinf 0.0000000e+00, Dinf 1.5094248e-10     63s


Root simplex log...

Iteration    Objective       Primal Inf.    Dual Inf.      Time
   90920    3.9564000e+03   0.000000e+00   0.000000e+00     63s
   90920    3.9564000e+03   0.000000e+00   0.000000e+00     63s
Concurrent spin time: 0.19s

Solved with primal simplex (primal model)

Root relaxation: objective 3.956400e+03, 90920 iterations, 58.41 seconds (31.73 work units)

    Nodes    |    Current Node    |     Objective Bounds      |     Work
 Expl Unexpl |  Obj  Depth IntInf | Incumbent    BestBd   Gap | It/Node Time

     0     0 3956.40000    0 147081 18861.2000 3956.40000  79.0%     -  113s
H    0     0                    16680.400000 3956.40000  76.3%     -  114s
     0     0          -    0      16680.4000 3956.40000  76.3%     - 1000s

Cutting planes:
  Cover: 2849
  MIR: 13
  Zero half: 178
  RLT: 132
  Relax-and-lift: 736

Explored 1 nodes (147601 simplex iterations) in 1000.05 seconds (2982.20 work units)
Thread count was 12 (of 12 available processors)

Solution count 2: 16680.4 18861.2 

Time limit reached
Best objective 1.668040000000e+04, best bound 3.956400000000e+03, gap 76.2811%

Gurobi 9.5.1 (win64) logging started Tue May 24 09:10:50 2022

Set parameter LogFile to value "./Log/Direct_MIP_Return_solver_960_order_96_batch.log"
Gurobi Optimizer version 9.5.1 build v9.5.1rc2 (win64)
Thread count: 6 physical cores, 12 logical processors, using up to 12 threads
Optimize a model with 440352 rows, 273408 columns and 1590720 nonzeros
Model fingerprint: 0x16336aca
Variable types: 4608 continuous, 268800 integer (268800 binary)
Coefficient statistics:
  Matrix range     [1e+00, 3e+01]
  Objective range  [4e-01, 1e+00]
  Bounds range     [1e+00, 4e+01]
  RHS range        [1e+00, 1e+01]
Found heuristic solution: objective 20130.400000
Presolve removed 107040 rows and 94176 columns
Presolve time: 4.58s
Presolved: 333312 rows, 179232 columns, 1455552 nonzeros
Variable types: 0 continuous, 179232 integer (174816 binary)

Deterministic concurrent LP optimizer: primal and dual simplex (primal and dual model)
Showing first log only...

Root relaxation presolve removed 78240 rows and 78240 columns
Root relaxation presolved: 255072 rows, 100992 columns, 1173888 nonzeros


Root simplex log...

Iteration    Objective       Primal Inf.    Dual Inf.      Time
       0    3.9556000e+03   0.000000e+00   0.000000e+00      6s

Use crossover to convert LP symmetric solution to basic solution...

Root crossover log...

       2 DPushes remaining with DInf 0.0000000e+00                 7s
       0 DPushes remaining with DInf 0.0000000e+00                 7s

   91010 PPushes remaining with PInf 0.0000000e+00                 7s
   80616 PPushes remaining with PInf 0.0000000e+00                13s
   70136 PPushes remaining with PInf 0.0000000e+00                20s
   63455 PPushes remaining with PInf 0.0000000e+00                24s
   56803 PPushes remaining with PInf 0.0000000e+00                30s
   49114 PPushes remaining with PInf 0.0000000e+00                34s
   43178 PPushes remaining with PInf 0.0000000e+00                38s
   36953 PPushes remaining with PInf 0.0000000e+00                43s
   31196 PPushes remaining with PInf 0.0000000e+00                47s
   19173 PPushes remaining with PInf 0.0000000e+00                51s
    6467 PPushes remaining with PInf 0.0000000e+00                55s
    2017 PPushes remaining with PInf 6.5060769e-03                61s
     596 PPushes remaining with PInf 6.3920250e-03                66s
       0 PPushes remaining with PInf 6.6090320e-03                69s

  Push phase complete: Pinf 6.6090320e-03, Dinf 4.0309522e-10     69s


Root simplex log...

Iteration    Objective       Primal Inf.    Dual Inf.      Time
   91014    3.9556000e+03   6.609032e-03   0.000000e+00     70s
   91144    3.9556000e+03   2.051353e-01   0.000000e+00     73s
   91304    3.9556000e+03   1.211720e-01   0.000000e+00     76s
   91534    3.9556000e+03   4.478257e-01   0.000000e+00     81s
   91806    3.9556000e+03   1.943741e-01   0.000000e+00     86s
   92078    3.9556000e+03   3.988897e-02   0.000000e+00     91s
   92350    3.9556000e+03   3.725803e-02   0.000000e+00     96s
   92622    3.9556000e+03   4.787757e-02   0.000000e+00    101s
   92894    3.9556000e+03   6.224186e-02   0.000000e+00    106s
   93166    3.9556000e+03   1.008538e-01   0.000000e+00    111s
   93710    3.9556000e+03   9.499498e-02   0.000000e+00    118s
   93982    3.9556000e+03   4.261169e-01   0.000000e+00    121s
Concurrent spin time: 12.81s

Solved with dual simplex (dual model)

Root relaxation: objective 3.955600e+03, 69741 iterations, 120.03 seconds (166.09 work units)

    Nodes    |    Current Node    |     Objective Bounds      |     Work
 Expl Unexpl |  Obj  Depth IntInf | Incumbent    BestBd   Gap | It/Node Time

     0     0 3955.60000    0 150630 20130.4000 3955.60000  80.4%     -  376s
H    0     0                    17940.400000 3955.60000  78.0%     -  377s
     0     0          -    0      17940.4000 3955.60000  78.0%     - 1000s

Cutting planes:
  Cover: 4517
  MIR: 4
  Zero half: 62
  RLT: 1096
  Relax-and-lift: 3446

Explored 1 nodes (113145 simplex iterations) in 1000.50 seconds (3002.19 work units)
Thread count was 12 (of 12 available processors)

Solution count 2: 17940.4 20130.4 

Time limit reached
Best objective 1.794040000000e+04, best bound 3.955600000000e+03, gap 77.9514%

Gurobi 9.5.1 (win64) logging started Tue May 24 09:27:50 2022

Set parameter LogFile to value "./Log/Direct_MIP_Return_solver_960_order_96_batch.log"
Gurobi Optimizer version 9.5.1 build v9.5.1rc2 (win64)
Thread count: 6 physical cores, 12 logical processors, using up to 12 threads
Optimize a model with 440352 rows, 273408 columns and 1595232 nonzeros
Model fingerprint: 0x81a19385
Variable types: 4608 continuous, 268800 integer (268800 binary)
Coefficient statistics:
  Matrix range     [1e+00, 4e+01]
  Objective range  [4e-01, 1e+00]
  Bounds range     [1e+00, 4e+01]
  RHS range        [1e+00, 1e+01]
Found heuristic solution: objective 19825.600000
Presolve removed 106560 rows and 96000 columns
Presolve time: 4.56s
Presolved: 333792 rows, 177408 columns, 1461120 nonzeros
Variable types: 0 continuous, 177408 integer (172992 binary)

Deterministic concurrent LP optimizer: primal and dual simplex (primal and dual model)
Showing first log only...

Root relaxation presolve removed 76416 rows and 76416 columns
Root relaxation presolved: 257376 rows, 100992 columns, 1183104 nonzeros


Root simplex log...

Iteration    Objective       Primal Inf.    Dual Inf.      Time
       0    3.9624000e+03   0.000000e+00   0.000000e+00      6s

Use crossover to convert LP symmetric solution to basic solution...

Root crossover log...

       1 DPushes remaining with DInf 0.0000000e+00                 7s

   91105 PPushes remaining with PInf 0.0000000e+00                 7s
   79741 PPushes remaining with PInf 0.0000000e+00                13s
   69945 PPushes remaining with PInf 0.0000000e+00                18s
   62685 PPushes remaining with PInf 0.0000000e+00                23s
   58349 PPushes remaining with PInf 0.0000000e+00                26s
   25926 PPushes remaining with PInf 0.0000000e+00                30s
    5861 PPushes remaining with PInf 6.7809419e-06                35s
     657 PPushes remaining with PInf 0.0000000e+00                41s
       0 PPushes remaining with PInf 0.0000000e+00                45s

  Push phase complete: Pinf 0.0000000e+00, Dinf 3.6529038e-10     45s


Root simplex log...

Iteration    Objective       Primal Inf.    Dual Inf.      Time
   91108    3.9624000e+03   0.000000e+00   0.000000e+00     45s
   91108    3.9624000e+03   0.000000e+00   0.000000e+00     46s
Concurrent spin time: 0.03s

Solved with primal simplex (primal model)

Root relaxation: objective 3.962400e+03, 91108 iterations, 40.60 seconds (34.19 work units)

    Nodes    |    Current Node    |     Objective Bounds      |     Work
 Expl Unexpl |  Obj  Depth IntInf | Incumbent    BestBd   Gap | It/Node Time

     0     0 3962.40000    0 148717 19825.6000 3962.40000  80.0%     -   98s
H    0     0                    17214.000000 3962.40000  77.0%     -   99s
     0     0          -    0      17214.0000 3962.40000  77.0%     - 1000s

Cutting planes:
  Cover: 2854
  MIR: 7
  Zero half: 143
  RLT: 541
  Relax-and-lift: 1132

Explored 1 nodes (148664 simplex iterations) in 1000.05 seconds (3093.72 work units)
Thread count was 12 (of 12 available processors)

Solution count 2: 17214 19825.6 

Time limit reached
Best objective 1.721400000000e+04, best bound 3.962400000000e+03, gap 76.9815%

Gurobi 9.5.1 (win64) logging started Tue May 24 09:44:50 2022

Set parameter LogFile to value "./Log/Direct_MIP_Return_solver_960_order_96_batch.log"
Gurobi Optimizer version 9.5.1 build v9.5.1rc2 (win64)
Thread count: 6 physical cores, 12 logical processors, using up to 12 threads
Optimize a model with 440352 rows, 273408 columns and 1595520 nonzeros
Model fingerprint: 0x53c48095
Variable types: 4608 continuous, 268800 integer (268800 binary)
Coefficient statistics:
  Matrix range     [1e+00, 3e+01]
  Objective range  [4e-01, 1e+00]
  Bounds range     [1e+00, 4e+01]
  RHS range        [1e+00, 1e+01]
Found heuristic solution: objective 19485.200000
Presolve removed 106944 rows and 95712 columns
Presolve time: 4.58s
Presolved: 333408 rows, 177696 columns, 1457472 nonzeros
Variable types: 0 continuous, 177696 integer (173280 binary)

Deterministic concurrent LP optimizer: primal and dual simplex (primal and dual model)
Showing first log only...

Root relaxation presolve removed 76896 rows and 76800 columns
Root relaxation presolved: 256512 rows, 100896 columns, 1178496 nonzeros


Root simplex log...

Iteration    Objective       Primal Inf.    Dual Inf.      Time
       0    3.9644000e+03   0.000000e+00   0.000000e+00      6s

Use crossover to convert LP symmetric solution to basic solution...

Root crossover log...

       2 DPushes remaining with DInf 0.0000000e+00                 7s
       0 DPushes remaining with DInf 0.0000000e+00                 7s

   91010 PPushes remaining with PInf 0.0000000e+00                 7s
   81175 PPushes remaining with PInf 0.0000000e+00                13s
   69693 PPushes remaining with PInf 0.0000000e+00                21s
   62419 PPushes remaining with PInf 0.0000000e+00                27s
   55672 PPushes remaining with PInf 0.0000000e+00                32s
   37502 PPushes remaining with PInf 0.0000000e+00                36s
   30651 PPushes remaining with PInf 0.0000000e+00                42s
   24327 PPushes remaining with PInf 0.0000000e+00                46s
   17913 PPushes remaining with PInf 0.0000000e+00                50s
    5054 PPushes remaining with PInf 0.0000000e+00                55s
    1355 PPushes remaining with PInf 0.0000000e+00                61s
     539 PPushes remaining with PInf 0.0000000e+00                66s
       0 PPushes remaining with PInf 6.4101997e-03                70s

  Push phase complete: Pinf 6.4101997e-03, Dinf 2.4488502e-10     70s


Root simplex log...

Iteration    Objective       Primal Inf.    Dual Inf.      Time
   91014    3.9644000e+03   6.410200e-03   0.000000e+00     70s
   91314    3.9644000e+03   3.060488e-01   0.000000e+00     77s
   91594    3.9644000e+03   3.077764e-01   0.000000e+00     83s
   91774    3.9644000e+03   4.459970e-01   0.000000e+00     86s
   91974    3.9644000e+03   6.150379e-01   0.000000e+00     90s
   92394    3.9644000e+03   8.037244e-01   0.000000e+00     98s
   92604    3.9644000e+03   1.134918e+00   0.000000e+00    102s
   92814    3.9644000e+03   1.290740e+00   0.000000e+00    106s
   93024    3.9644000e+03   4.016907e+00   0.000000e+00    110s
   93444    3.9644000e+03   7.843241e+00   0.000000e+00    118s
   93664    3.9644000e+03   3.916746e+01   0.000000e+00    122s
   93884    3.9644000e+03   1.473214e+01   0.000000e+00    125s
   94364    3.9644000e+03   1.171102e+02   0.000000e+00    131s
Concurrent spin time: 9.06s

Solved with dual simplex (dual model)

Root relaxation: objective 3.964400e+03, 65967 iterations, 126.22 seconds (171.86 work units)

    Nodes    |    Current Node    |     Objective Bounds      |     Work
 Expl Unexpl |  Obj  Depth IntInf | Incumbent    BestBd   Gap | It/Node Time

     0     0 3964.40000    0 148452 19485.2000 3964.40000  79.7%     -  401s
H    0     0                    17720.000000 3964.40000  77.6%     -  401s
     0     0          -    0      17720.0000 3964.40000  77.6%     - 1000s

Cutting planes:
  Cover: 4581
  Clique: 3
  MIR: 24
  Zero half: 47
  RLT: 1397
  Relax-and-lift: 3564

Explored 1 nodes (114951 simplex iterations) in 1000.05 seconds (2980.37 work units)
Thread count was 12 (of 12 available processors)

Solution count 2: 17720 19485.2 

Time limit reached
Best objective 1.772000000000e+04, best bound 3.964400000000e+03, gap 77.6275%
